output ["pos = array4d(1..3, 1..8, 1..6, 1..6, ",showDzn(pos),");\n"];
set of int: Y_RANGE = 1..6;
set of int: X_RANGE = 1..6;
set of int: T_RANGE = 1..8;
set of int: R = 1..3;
array [1..864] of bool: X_INTRODUCED_0_;
array [R,T_RANGE,X_RANGE,Y_RANGE] of bool: pos = array4d(1..3,1..8,1..6,1..6,X_INTRODUCED_0_);
